
******************************************************************************
This program contains Ipopt, a library for large-scale nonlinear optimization.
 Ipopt is released as open source code under the Eclipse Public License (EPL).
         For more information visit https://github.com/coin-or/Ipopt
******************************************************************************

This is Ipopt version 3.14.4, running with linear solver MUMPS 5.4.1.

Number of nonzeros in equality constraint Jacobian...:        0
Number of nonzeros in inequality constraint Jacobian.:      810
Number of nonzeros in Lagrangian Hessian.............:        0

Total number of variables............................:       18
                     variables with only lower bounds:        0
                variables with lower and upper bounds:       18
                     variables with only upper bounds:        0
Total number of equality constraints.................:        0
Total number of inequality constraints...............:       45
        inequality constraints with only lower bounds:        0
   inequality constraints with lower and upper bounds:        0
        inequality constraints with only upper bounds:       45

iter    objective    inf_pr   inf_du lg(mu)  ||d||  lg(rg) alpha_du alpha_pr  ls
   0  1.8852387e-01 0.00e+00 1.32e+00   0.0 0.00e+00    -  0.00e+00 0.00e+00   0
   1  1.8852387e-01 0.00e+00 1.32e-02  -3.1 3.80e-05    -  9.90e-01 3.65e-304h1009
   2  1.8852254e-01 0.00e+00 3.72e-02   0.8 7.43e-02    -  1.00e+00 1.00e+00f  1
   3  1.8741649e-01 0.00e+00 4.66e-04   0.1 8.58e+01    -  1.00e+00 1.00e+00f  1
   4  1.8731988e-01 0.00e+00 1.23e-03  -2.1 5.55e+00    -  9.96e-01 1.00e+00h  1
   5  1.8682672e-01 0.00e+00 2.28e-05  -3.6 1.87e+01    -  1.00e+00 1.00e+00h  1
   6  1.8622665e-01 0.00e+00 2.66e-05  -5.5 2.23e+01    -  1.00e+00 1.00e+00h  1
   7  1.8622665e-01 0.00e+00 8.94e-06 -11.0 1.15e-01    -  1.00e+00 1.00e+00h  1
   8  1.8622326e-01 0.00e+00 8.94e-06 -11.0 8.94e-02  -4.0 1.00e+00 1.00e+00h  1
   9  1.8621309e-01 0.00e+00 8.95e-06 -11.0 2.69e-01  -4.5 1.00e+00 1.00e+00h  1
iter    objective    inf_pr   inf_du lg(mu)  ||d||  lg(rg) alpha_du alpha_pr  ls
  10  1.8618267e-01 0.00e+00 8.98e-06 -11.0 8.08e-01  -5.0 1.00e+00 1.00e+00h  1
  11  1.8609188e-01 0.00e+00 9.05e-06 -11.0 2.44e+00  -5.4 1.00e+00 1.00e+00h  1
  12  1.8582182e-01 0.00e+00 9.21e-06 -11.0 7.46e+00  -5.9 1.00e+00 1.00e+00h  1
  13  1.8502175e-01 0.00e+00 9.37e-06 -11.0 2.28e+01  -6.4 1.00e+00 1.00e+00h  1
  14  1.8229848e-01 0.00e+00 3.54e-05 -11.0 1.96e+03    -  3.98e-01 1.06e-01h  3
  15  1.8090202e-01 0.00e+00 1.70e-05 -11.0 5.95e+01    -  1.00e+00 1.00e+00h  1
  16  1.7951909e-01 0.00e+00 1.33e-05 -11.0 1.09e+02    -  1.00e+00 1.00e+00h  1
  17  1.7995503e-01 1.26e-02 2.29e-05 -11.0 4.82e+02    -  1.00e+00 7.90e-01H  1
  18r 1.7995503e-01 1.26e-02 9.99e+02  -0.1 0.00e+00    -  0.00e+00 7.38e-08R  6
  19r 1.7995496e-01 1.22e-02 4.84e+00  -1.4 8.13e+02    -  1.00e+00 9.90e-04f  1
iter    objective    inf_pr   inf_du lg(mu)  ||d||  lg(rg) alpha_du alpha_pr  ls
  20  1.7988454e-01 1.21e-02 3.44e-04  -7.0 5.85e+02    -  1.00e+00 9.26e-03h  1
  21  1.7826192e-01 2.57e-02 6.04e-04  -5.0 9.84e+02    -  1.00e+00 8.24e-02h  1
  22  1.7801363e-01 0.00e+00 4.44e-04  -3.9 9.25e+02    -  5.32e-01 1.40e-01h  3
  23  1.7740049e-01 4.78e-02 2.48e-04  -4.3 2.42e+02    -  4.96e-01 1.00e+00h  1
  24  1.7662262e-01 0.00e+00 4.77e-05  -5.4 1.55e+02    -  8.19e-01 1.00e+00h  1
  25  1.7559388e-01 0.00e+00 6.77e-06  -4.1 1.23e+02    -  1.00e+00 1.00e+00h  1
  26  1.7530532e-01 1.30e-02 2.26e-06  -4.8 5.32e+01    -  1.00e+00 1.00e+00h  1
  27  1.7527251e-01 0.00e+00 2.48e-06  -4.9 1.80e+01    -  1.00e+00 1.00e+00h  1
  28  1.7522821e-01 0.00e+00 1.00e-06  -5.7 1.02e+01    -  1.00e+00 1.00e+00h  1
  29  1.7520752e-01 7.30e-04 1.31e-06  -6.5 2.49e+01    -  1.00e+00 1.00e+00h  1
iter    objective    inf_pr   inf_du lg(mu)  ||d||  lg(rg) alpha_du alpha_pr  ls
  30  1.7524064e-01 0.00e+00 7.99e-06  -7.3 4.75e+01    -  7.38e-01 9.98e-01H  1
  31  1.7517383e-01 1.70e-03 9.60e-07  -7.2 2.35e+01    -  9.98e-01 1.00e+00h  1
  32  1.7515959e-01 2.11e-04 2.75e-07  -7.9 1.07e+01    -  1.00e+00 1.00e+00h  1
  33  1.7516277e-01 7.14e-06 2.78e-07  -9.6 3.08e+00    -  1.00e+00 1.00e+00h  1
  34  1.7516052e-01 3.60e-06 7.21e-08 -10.6 1.88e+00    -  1.00e+00 1.00e+00h  1
  35  1.7515631e-01 1.83e-05 1.57e-07 -11.0 2.24e+00    -  1.00e+00 1.00e+00h  1
  36  1.7515699e-01 5.89e-06 8.09e-08 -11.0 1.27e+00    -  1.00e+00 1.00e+00h  1
  37  1.7515878e-01 1.90e-07 1.08e-07 -11.0 1.06e+00    -  1.00e+00 1.00e+00h  1

Number of Iterations....: 37

                                   (scaled)                 (unscaled)
Objective...............:   1.7515877799241217e-01    1.7515877799241217e-01
Dual infeasibility......:   1.0800665351475900e-07    1.0800665351475900e-07
Constraint violation....:   1.8963249098509550e-07    1.8963249098509550e-07
Variable bound violation:   0.0000000000000000e+00    0.0000000000000000e+00
Complementarity.........:   1.0000000221558061e-11    1.0000000221558061e-11
Overall NLP error.......:   1.8963249098509550e-07    1.8963249098509550e-07


Number of objective function evaluations             = 1066
Number of objective gradient evaluations             = 38
Number of equality constraint evaluations            = 0
Number of inequality constraint evaluations          = 1066
Number of equality constraint Jacobian evaluations   = 0
Number of inequality constraint Jacobian evaluations = 39
Number of Lagrangian Hessian evaluations             = 0
Total seconds in IPOPT                               = 42.241

EXIT: Optimal Solution Found.
